1 -1 -2 0
1 1 3 0
1 -1 4 0
1 1 -5 0
1 2 6 0
1 2 -7 0
1 -2 -3 0
1 -2 -4 0
1 2 8 0
1 -9 10 0
1 9 11 0
1 9 -4 0
1 9 8 0
1 -10 -12 0
1 -10 13 0
1 -10 -14 0
1 10 -7 0
1 10 11 0
1 10 4 0
1 10 -8 0
1 -3 -15 0
1 3 16 0
1 -3 17 0
1 3 -18 0
1 3 -8 0
1 -8 -19 0
1 -8 -15 0
1 8 20 0
1 -8 -10 0
1 -8 -17 0
1 8 9 0
1 -8 -1 0
1 7 -15 0
1 7 -21 0
1 7 -22 0
1 -7 -10 0
1 -7 23 0
1 -7 16 0
1 7 24 0
1 7 -25 0
1 -7 -9 0
1 -4 15 0
1 4 21 0
1 4 22 0
1 -4 7 0
1 4 -16 0
1 -4 -24 0
1 4 -25 0
1 4 1 0
1 -4 -26 0
1 -18 12 0
1 18 3 0
1 18 -11 0
1 -18 27 0
1 18 25 0
1 -18 -8 0
1 28 -11 0
1 28 27 0
1 28 -18 0
1 17 -13 0
1 17 20 0
1 -17 -29 0
1 -17 -3 0
1 -17 11 0
1 17 30 0
1 17 8 0
1 -20 13 0
1 20 -29 0
1 -20 -3 0
1 27 31 0
1 27 13 0
1 -27 28 0
1 27 -10 0
1 -27 32 0
1 -27 33 0
1 -27 -34 0
1 27 -17 0
1 27 9 0
1 13 -35 0
1 -13 -31 0
1 13 20 0
1 -13 28 0
1 -13 10 0
1 -13 27 0
1 -13 18 0
1 13 -9 0
1 -13 -36 0
1 -11 -12 0
1 11 37 0
1 -11 15 0
1 11 -20 0
1 -11 -28 0
1 -11 -10 0
1 -11 38 0
1 11 16 0
1 11 17 0
1 -11 -9 0
1 12 -39 0
1 12 15 0
1 -12 -20 0
1 -12 -28 0
1 12 -10 0
1 -12 -40 0
1 -12 -11 0
1 -12 38 0
1 12 16 0
1 -12 -9 0
1 33 -13 0
1 -33 -29 0
1 33 -41 0
1 -33 27 0
1 -31 -13 0
1 31 -41 0
1 -31 27 0
1 31 30 0
1 32 35 0
1 -32 -13 0
1 32 -27 0
1 32 30 0
1 35 -13 0
1 35 -41 0
1 35 -32 0
1 35 -27 0
1 35 42 0
1 -35 30 0
1 30 -35 0
1 -30 -31 0
1 -30 20 0
1 30 43 0
1 -30 -32 0
1 -30 -33 0
1 -30 -44 0
1 -41 -35 0
1 41 -20 0
1 41 32 0
1 41 -33 0
1 41 30 0
1 -42 -31 0
1 42 -20 0
1 -42 -29 0
1 42 -45 0
1 42 40 0
1 42 -32 0
1 -42 17 0
1 -42 -44 0
1 -42 -36 0
1 29 -35 0
1 -29 31 0
1 -29 -40 0
1 29 32 0
1 -29 17 0
1 -29 -46 0
1 -29 -36 0
1 5 47 0
1 5 48 0
1 -5 -1 0
1 -6 47 0
1 6 2 0
1 6 -48 0
1 -6 49 0
1 50 47 0
1 50 51 0
1 -50 -52 0
1 50 -14 0
1 -50 49 0
1 50 -53 0
1 50 54 0
1 -14 47 0
1 14 -52 0
1 14 48 0
1 14 54 0
1 -14 50 0
1 -47 21 0
1 47 55 0
1 -47 49 0
1 47 24 0
1 -47 -25 0
1 47 -5 0
1 49 -21 0
1 -49 -56 0
1 49 25 0
1 -49 -5 0
1 -57 -58 0
1 57 -6 0
1 57 -48 0
1 57 -50 0
1 -48 57 0
1 25 -47 0
1 25 51 0
1 25 49 0
1 -25 53 0
1 25 -18 0
1 -22 -51 0
1 22 52 0
1 -22 7 0
1 -22 -54 0
1 22 -4 0
1 -24 47 0
1 24 -59 0
1 24 60 0
1 24 -7 0
1 24 17 0
1 24 -54 0
1 -24 -61 0
1 -21 -54 0
1 21 -47 0
1 -21 20 0
1 21 -51 0
1 21 52 0
1 21 59 0
1 21 -60 0
1 21 -24 0
1 -21 62 0
1 -21 61 0
1 -52 -63 0
1 52 -54 0
1 52 37 0
1 -52 -22 0
1 52 14 0
1 52 64 0
1 52 -16 0
1 -52 24 0
1 -52 -50 0
1 54 -63 0
1 -54 15 0
1 -54 14 0
1 54 64 0
1 -54 38 0
1 54 65 0
1 -54 -25 0
1 54 -50 0
1 -51 -21 0
1 51 25 0
1 53 63 0
1 53 -24 0
1 53 66 0
1 -16 -52 0
1 16 -7 0
1 -16 -11 0
1 16 -62 0
1 -16 61 0
1 16 -4 0
1 -15 12 0
1 15 59 0
1 15 60 0
1 15 -7 0
1 -15 -62 0
1 38 -52 0
1 -38 -59 0
1 -38 60 0
1 38 -23 0
1 -38 67 0
1 -38 -32 0
1 37 -19 0
1 37 -12 0
1 37 59 0
1 -37 -67 0
1 -37 54 0
1 -37 -62 0
1 37 26 0
1 60 -37 0
1 60 21 0
1 -60 -68 0
1 60 -45 0
1 60 69 0
1 -60 -40 0
1 60 -38 0
1 60 -16 0
1 60 24 0
1 -60 46 0
1 -61 21 0
1 61 -60 0
1 61 -68 0
1 -61 -45 0
1 61 -40 0
1 -61 70 0
1 61 -71 0
1 61 46 0
1 -61 -36 0
1 -59 -37 0
1 -59 72 0
1 -59 -68 0
1 59 -73 0
1 -59 -64 0
1 -59 16 0
1 -59 -74 0
1 -62 -37 0
1 62 -59 0
1 -62 64 0
1 -62 -16 0
1 62 24 0
1 62 -75 0
1 40 -19 0
1 -40 13 0
1 -40 -29 0
1 40 67 0
1 -40 -27 0
1 -40 61 0
1 40 36 0
1 -36 -19 0
1 -36 13 0
1 36 23 0
1 -36 67 0
1 36 -11 0
1 36 27 0
1 -36 -42 0
1 -36 -61 0
1 -45 19 0
1 45 39 0
1 -45 -29 0
1 -45 76 0
1 -45 -34 0
1 45 42 0
1 45 61 0
1 45 -26 0
1 -46 19 0
1 46 39 0
1 46 29 0
1 -46 -67 0
1 -46 76 0
1 46 74 0
1 67 -37 0
1 -67 77 0
1 -67 -40 0
1 -67 -3 0
1 -67 -78 0
1 -67 -36 0
1 -19 37 0
1 -19 77 0
1 -19 -40 0
1 -19 38 0
1 19 79 0
1 19 46 0
1 -23 45 0
1 23 7 0
1 23 -40 0
1 23 -38 0
1 -23 -80 0
1 -23 71 0
1 -23 36 0
1 26 68 0
1 -26 45 0
1 26 -23 0
1 -26 -40 0
1 -26 80 0
1 26 71 0
1 -43 19 0
1 43 81 0
1 -43 68 0
1 44 -39 0
1 44 -81 0
1 44 29 0
1 44 43 0
1 -44 71 0
1 -82 19 0
1 -82 81 0
1 82 83 0
1 -82 76 0
1 82 -34 0
1 82 84 0
1 79 -19 0
1 79 -39 0
1 -79 -67 0
1 79 -76 0
1 79 -34 0
1 -79 -85 0
1 79 -80 0
1 -34 -81 0
1 -34 86 0
1 -34 82 0
1 34 27 0
1 81 -86 0
1 81 82 0
1 -81 87 0
1 81 -44 0
1 -81 -46 0
1 -76 88 0
1 76 45 0
1 76 -78 0
1 76 79 0
1 -76 44 0
1 -39 12 0
1 39 -88 0
1 -39 82 0
1 39 -43 0
1 -39 45 0
1 -39 76 0
1 39 -89 0
1 -39 78 0
1 39 -46 0
1 -90 -91 0
1 90 -77 0
1 -90 -85 0
1 -90 -84 0
1 -92 -81 0
1 -92 -91 0
1 -92 85 0
1 -92 -78 0
1 -86 88 0
1 -86 -91 0
1 86 -87 0
1 -86 -34 0
1 87 83 0
1 87 91 0
1 87 -89 0
1 -84 86 0
1 -84 -91 0
1 -84 92 0
1 84 79 0
1 -91 -90 0
1 -91 87 0
1 -91 92 0
1 -85 83 0
1 85 82 0
1 85 92 0
1 -83 -86 0
1 -83 -90 0
1 -83 82 0
1 64 63 0
1 64 -53 0
1 64 54 0
1 63 55 0
1 -63 -51 0
1 -63 -93 0
1 63 -56 0
1 -63 62 0
1 73 58 0
1 -73 55 0
1 73 -94 0
1 73 95 0
1 73 -59 0
1 73 45 0
1 -73 93 0
1 73 56 0
1 73 -74 0
1 -74 58 0
1 74 -95 0
1 74 -59 0
1 -74 -73 0
1 74 -93 0
1 74 -66 0
1 -55 47 0
1 -55 -64 0
1 -56 -55 0
1 -56 73 0
1 -56 64 0
1 -56 -49 0
1 -56 -74 0
1 -58 73 0
1 -58 -74 0
1 -93 -63 0
1 93 -64 0
1 -93 -48 0
1 -93 -74 0
1 68 -55 0
1 68 -43 0
1 68 65 0
1 -68 71 0
1 -71 95 0
1 71 -61 0
1 -71 60 0
1 71 23 0
1 -71 -66 0
1 -71 62 0
1 -96 75 0
1 96 94 0
1 -96 -95 0
1 -96 -82 0
1 96 69 0
1 -96 23 0
1 96 -56 0
1 96 65 0
1 -96 -80 0
1 96 70 0
1 96 -26 0
1 -80 -96 0
1 80 72 0
1 80 -23 0
1 80 -65 0
1 80 -79 0
1 -80 -75 0
1 -80 -70 0
1 -80 26 0
1 -95 -88 0
1 -95 52 0
1 95 -77 0
1 -95 96 0
1 95 68 0
1 -95 -73 0
1 -95 89 0
1 95 -80 0
1 95 -74 0
1 65 96 0
1 65 -73 0
1 65 -78 0
1 65 -74 0
1 -94 51 0
1 94 -68 0
1 -94 66 0
1 66 -96 0
1 66 68 0
1 -66 73 0
1 66 53 0
1 66 -80 0
1 -66 -74 0
1 77 -39 0
1 77 65 0
1 -77 72 0
1 -77 -67 0
1 -77 -78 0
1 -77 70 0
1 -78 19 0
1 -78 -39 0
1 -78 -72 0
1 78 23 0
1 78 -76 0
1 -78 -65 0
1 78 70 0
1 78 -26 0
1 88 39 0
1 -88 -86 0
1 -88 95 0
1 -88 -72 0
1 88 -69 0
1 88 -76 0
1 -88 -89 0
1 -89 88 0
1 89 -95 0
1 89 69 0
1 -89 -76 0
1 -89 87 0
1 89 -75 0
1 -89 70 0
1 69 -88 0
1 69 -96 0
1 69 78 0
1 -69 -70 0
1 -70 -88 0
1 -70 -77 0
1 70 -96 0
1 70 78 0
1 72 -88 0
1 -72 -75 0
1 -72 96 0
1 -72 -89 0
1 72 78 0
1 75 72 0
1 75 78 0
1 -75 -62 0
